CsNpAmBr                                
   1.00000000000000     
     0.0000000000000000    5.7262789452600380    5.7262789452600380
     5.7262789452600380    0.0000000000000000    5.7262789452600380
     5.7262789452600380    5.7262789452600380    0.0000000000000000
   Np   Am   Cs   Br
     1     1     2     6
Direct
  0.0000000000000000  0.0000000000000000  0.0000000000000000
  0.5000000000000000  0.5000000000000000  0.5000000000000000
  0.2500000000000000  0.2500000000000000  0.2500000000000000
  0.7500000000000000  0.7500000000000000  0.7500000000000000
  0.7508891704261629  0.2491108295738371  0.2491108295738371
  0.2491108295738371  0.7508891704261629  0.7508891704261629
  0.2491108295738371  0.7508891704261629  0.2491108295738371
  0.7508891704261629  0.2491108295738371  0.7508891704261629
  0.2491108295738371  0.2491108295738371  0.7508891704261629
  0.7508891704261629  0.7508891704261629  0.2491108295738371
 
  0.00000000E+00  0.00000000E+00  0.00000000E+00
  0.00000000E+00  0.00000000E+00  0.00000000E+00
  0.00000000E+00  0.00000000E+00  0.00000000E+00
  0.00000000E+00  0.00000000E+00  0.00000000E+00
  0.00000000E+00  0.00000000E+00  0.00000000E+00
  0.00000000E+00  0.00000000E+00  0.00000000E+00
  0.00000000E+00  0.00000000E+00  0.00000000E+00
  0.00000000E+00  0.00000000E+00  0.00000000E+00
  0.00000000E+00  0.00000000E+00  0.00000000E+00
  0.00000000E+00  0.00000000E+00  0.00000000E+00
