&CONTROL
  calculation = 'scf'
  pseudo_dir = '.'
  disk_io = 'low'
  prefix = 'Ni'
  outdir = '.'
  wf_collect = '.true.'
/
&SYSTEM
   ntyp             = 1
   nat              = 1
   ibrav            = 2
   nspin            = 2
   nosym = .true.
   a = 3.52
   occupations = 'smearing'
   degauss = 0.02
   starting_magnetization(1) = -1
/
&ELECTRONS
/
&IONS
/
&CELL
/

ATOMIC_SPECIES
Ni 58.6934 Ni.pbesol-n-kjpaw_psl.1.0.0.UPF

K_POINTS automatic
16 16 16 0 0 0

ATOMIC_POSITIONS crystal
Ni 0 0 0

