Ag1Co1O2   [HEX,HEX,hP8] (STD_PRIM doi:1
   1.00000000000000     
     1.4537477775587075   -2.5180382044727367   -0.0000000000000000
     1.4537477775587075    2.5180382044727367    0.0000000000000000
     0.0000000000000000   -0.0000000000000000   12.4187267328864674
   2   2   4
Direct
  0.3333004762605296  0.6666995237394704  0.2500000000000000
  0.6666995237394704  0.3333004762605296  0.7500000000000000
 -0.0000000000000000 -0.0000000000000000  0.0000000000000000
  0.0000000000000000  0.0000000000000000  0.5000000000000000
  0.3333132301096373  0.6666867698903628  0.0774770839206400
  0.6666867698903628  0.3333132301096373  0.5774770839206400
  0.6666867698903628  0.3333132301096373  0.9225229160793600
  0.3333132301096373  0.6666867698903628  0.4225229160793599
 
  0.00000000E+00  0.00000000E+00  0.00000000E+00
  0.00000000E+00  0.00000000E+00  0.00000000E+00
  0.00000000E+00  0.00000000E+00  0.00000000E+00
  0.00000000E+00  0.00000000E+00  0.00000000E+00
  0.00000000E+00  0.00000000E+00  0.00000000E+00
  0.00000000E+00  0.00000000E+00  0.00000000E+00
  0.00000000E+00  0.00000000E+00  0.00000000E+00
  0.00000000E+00  0.00000000E+00  0.00000000E+00
