Ag1Co1O2   [HEX,HEX,hP8] (STD_PRIM doi:1
1.000000
   1.45312977848108  -2.51697472276222   0.00000000000000
   1.45312977848108   2.51697472276222  -0.00000000000000
   0.00000000000000  -0.00000000000000  12.43841421003034
2 2 4 
Direct(8) [A2B2C4] 
   0.33330088169046   0.66669911830954   0.25000000000000  Ag    
   0.66669911830954   0.33330088169046   0.75000000000000  Ag    
   0.00000000000000   0.00000000000000   0.00000000000000  Co    
   0.00000000000000   0.00000000000000   0.50000000000000  Co    
   0.33332156424904   0.66667843575096   0.07753958915729  O     
   0.66667843575096   0.33332156424904   0.57753958915729  O     
   0.66667843575096   0.33332156424904   0.92246041084271  O     
   0.33332156424904   0.66667843575096   0.42246041084271  O     
