Ag1Co1O2   [HEX,HEX,hP8] (STD_PRIM doi:1
   1.00000000000000     
     1.4531297784810817   -2.5169747227622157    0.0000000000000000
     1.4531297784810817    2.5169747227622157   -0.0000000000000000
     0.0000000000000000   -0.0000000000000000   12.4384142100303432
   2   2   4
Direct
  0.3333008816904586  0.6666991183095415  0.2500000000000000
  0.6666991183095415  0.3333008816904586  0.7500000000000000
  0.0000000000000000  0.0000000000000000  0.0000000000000000
 -0.0000000000000000 -0.0000000000000000  0.5000000000000000
  0.3333215642490431  0.6666784357509569  0.0775395891572930
  0.6666784357509569  0.3333215642490431  0.5775395891572931
  0.6666784357509569  0.3333215642490431  0.9224604108427069
  0.3333215642490431  0.6666784357509569  0.4224604108427070
 
  0.00000000E+00  0.00000000E+00  0.00000000E+00
  0.00000000E+00  0.00000000E+00  0.00000000E+00
  0.00000000E+00  0.00000000E+00  0.00000000E+00
  0.00000000E+00  0.00000000E+00  0.00000000E+00
  0.00000000E+00  0.00000000E+00  0.00000000E+00
  0.00000000E+00  0.00000000E+00  0.00000000E+00
  0.00000000E+00  0.00000000E+00  0.00000000E+00
  0.00000000E+00  0.00000000E+00  0.00000000E+00
