KPOINTS File, automatically generated by KPPRA - aflow with Kpoints=11552  [KPPRA=10000]
0
Gamma
19 19 4
0 0 0
