KPOINTS File, automatically generated by KPPRA - aflow with Kpoints=5400  [KPPRA=5000]
0
Gamma
15 15 3
0 0 0
