U1 O3                                   
   1.00000000000000     
     4.1354162299999997    0.0000000000000000    0.0000000000000000
     0.0000000000000000    4.1354162299999997    0.0000000000000000
     0.0000000000000000    0.0000000000000000    4.1354162299999997
   U    O 
     1     3
Direct
  0.0000000000000000  0.0000000000000000  0.0000000000000000
  0.0000000000000000  0.5000000000000000  0.0000000000000000
  0.5000000000000000  0.0000000000000000  0.0000000000000000
  0.0000000000000000  0.0000000000000000  0.5000000000000000
 
  0.00000000E+00  0.00000000E+00  0.00000000E+00
  0.00000000E+00  0.00000000E+00  0.00000000E+00
  0.00000000E+00  0.00000000E+00  0.00000000E+00
  0.00000000E+00  0.00000000E+00  0.00000000E+00
