#scaled (0.997961) poscar               
   1.00000000000000     
     6.7561482628943290    0.0000000000000000    0.0000000000000000
     0.0000000000000000    7.3181057339866111    0.0000000000000000
     0.0000000000000000    0.0000000000000000    9.2877921021871348
   C    H 
    24    24
Direct
  0.9941965584334361  0.9375787531456169  0.1421740969624635
  0.1280628384124825  0.8607996184399925  0.0446924290570765
  0.8661882270454719  0.0763154771530223  0.0973137076865041
  0.1338117729545279  0.9236845228469776  0.9026862923134960
  0.8719371615875177  0.1392003815600074  0.9553075709429236
  0.0058034415665639  0.0624212468543832  0.8578259030375366
  0.9941965584334361  0.5624212468543831  0.6421740969624634
  0.1280628384124825  0.6392003815600075  0.5446924290570764
  0.8661882270454719  0.4236845228469777  0.5973137076865040
  0.1338117729545279  0.5763154771530224  0.4026862923134959
  0.8719371615875177  0.3607996184399927  0.4553075709429235
  0.0058034415665639  0.4375787531456168  0.3578259030375364
  0.4941965584334361  0.9375787531456169  0.3578259030375364
  0.6280628384124823  0.8607996184399925  0.4553075709429235
  0.3661882270454720  0.0763154771530223  0.4026862923134959
  0.6338117729545281  0.9236845228469776  0.5973137076865040
  0.3719371615875175  0.1392003815600074  0.5446924290570764
  0.5058034415665639  0.0624212468543832  0.6421740969624634
  0.4941965584334361  0.5624212468543831  0.8578259030375366
  0.6280628384124823  0.6392003815600075  0.9553075709429236
  0.3661882270454720  0.4236845228469777  0.9026862923134960
  0.6338117729545281  0.5763154771530224  0.0973137076865041
  0.3719371615875175  0.3607996184399927  0.0446924290570765
  0.5058034415665639  0.4375787531456168  0.1421740969624635
  0.9893625168036663  0.8893099337400433  0.2531824218814490
  0.2276659740279714  0.7515206846270751  0.0781590762253860
  0.7605114319515454  0.1351866631636708  0.1727320074012202
  0.2394885680484546  0.8648133368363221  0.8272679925987795
  0.7723340259720288  0.2484793153729250  0.9218409237746141
  0.0106374831963337  0.1106900662599567  0.7468175781185509
  0.9893625168036663  0.6106900662599567  0.7531824218814491
  0.2276659740279714  0.7484793153729249  0.5781590762253859
  0.7605114319515454  0.3648133368363292  0.6727320074012205
  0.2394885680484546  0.6351866631636779  0.3272679925987798
  0.7723340259720288  0.2515206846270750  0.4218409237746140
  0.0106374831963337  0.3893099337400432  0.2468175781185510
  0.4893625168036663  0.8893099337400433  0.2468175781185510
  0.7276659740279712  0.7515206846270751  0.4218409237746140
  0.2605114319515454  0.1351866631636708  0.3272679925987798
  0.7394885680484546  0.8648133368363221  0.6727320074012205
  0.2723340259720285  0.2484793153729250  0.5781590762253859
  0.5106374831963337  0.1106900662599567  0.7531824218814491
  0.4893625168036663  0.6106900662599567  0.7468175781185509
  0.7276659740279712  0.7484793153729249  0.9218409237746141
  0.2605114319515454  0.3648133368363292  0.8272679925987795
  0.7394885680484546  0.6351866631636779  0.1727320074012202
  0.2723340259720285  0.2515206846270750  0.0781590762253860
  0.5106374831963337  0.3893099337400432  0.2531824218814490
 
  0.00000000E+00  0.00000000E+00  0.00000000E+00
  0.00000000E+00  0.00000000E+00  0.00000000E+00
  0.00000000E+00  0.00000000E+00  0.00000000E+00
  0.00000000E+00  0.00000000E+00  0.00000000E+00
  0.00000000E+00  0.00000000E+00  0.00000000E+00
  0.00000000E+00  0.00000000E+00  0.00000000E+00
  0.00000000E+00  0.00000000E+00  0.00000000E+00
  0.00000000E+00  0.00000000E+00  0.00000000E+00
  0.00000000E+00  0.00000000E+00  0.00000000E+00
  0.00000000E+00  0.00000000E+00  0.00000000E+00
  0.00000000E+00  0.00000000E+00  0.00000000E+00
  0.00000000E+00  0.00000000E+00  0.00000000E+00
  0.00000000E+00  0.00000000E+00  0.00000000E+00
  0.00000000E+00  0.00000000E+00  0.00000000E+00
  0.00000000E+00  0.00000000E+00  0.00000000E+00
  0.00000000E+00  0.00000000E+00  0.00000000E+00
  0.00000000E+00  0.00000000E+00  0.00000000E+00
  0.00000000E+00  0.00000000E+00  0.00000000E+00
  0.00000000E+00  0.00000000E+00  0.00000000E+00
  0.00000000E+00  0.00000000E+00  0.00000000E+00
  0.00000000E+00  0.00000000E+00  0.00000000E+00
  0.00000000E+00  0.00000000E+00  0.00000000E+00
  0.00000000E+00  0.00000000E+00  0.00000000E+00
  0.00000000E+00  0.00000000E+00  0.00000000E+00
  0.00000000E+00  0.00000000E+00  0.00000000E+00
  0.00000000E+00  0.00000000E+00  0.00000000E+00
  0.00000000E+00  0.00000000E+00  0.00000000E+00
  0.00000000E+00  0.00000000E+00  0.00000000E+00
  0.00000000E+00  0.00000000E+00  0.00000000E+00
  0.00000000E+00  0.00000000E+00  0.00000000E+00
  0.00000000E+00  0.00000000E+00  0.00000000E+00
  0.00000000E+00  0.00000000E+00  0.00000000E+00
  0.00000000E+00  0.00000000E+00  0.00000000E+00
  0.00000000E+00  0.00000000E+00  0.00000000E+00
  0.00000000E+00  0.00000000E+00  0.00000000E+00
  0.00000000E+00  0.00000000E+00  0.00000000E+00
  0.00000000E+00  0.00000000E+00  0.00000000E+00
  0.00000000E+00  0.00000000E+00  0.00000000E+00
  0.00000000E+00  0.00000000E+00  0.00000000E+00
  0.00000000E+00  0.00000000E+00  0.00000000E+00
  0.00000000E+00  0.00000000E+00  0.00000000E+00
  0.00000000E+00  0.00000000E+00  0.00000000E+00
  0.00000000E+00  0.00000000E+00  0.00000000E+00
  0.00000000E+00  0.00000000E+00  0.00000000E+00
  0.00000000E+00  0.00000000E+00  0.00000000E+00
  0.00000000E+00  0.00000000E+00  0.00000000E+00
  0.00000000E+00  0.00000000E+00  0.00000000E+00
  0.00000000E+00  0.00000000E+00  0.00000000E+00
