generated by phonopy
   1.0
    13.5122965257886580    0.0000000000000000    0.0000000000000000
     0.0000000000000000   14.6362114679732223    0.0000000000000000
     0.0000000000000000    0.0000000000000000   18.5755842043742696
C H
 192  192
Direct
  0.4970982792167181  0.4687893765728084  0.0710870484812317
  0.9970982792167180  0.4687893765728084  0.0710870484812317
  0.4970982792167181  0.9687893765728084  0.0710870484812317
  0.9970982792167180  0.9687893765728084  0.0710870484812317
  0.4970982792167181  0.4687893765728084  0.5710870484812317
  0.9970982792167180  0.4687893765728084  0.5710870484812317
  0.4970982792167181  0.9687893765728084  0.5710870484812317
  0.9970982792167180  0.9687893765728084  0.5710870484812317
  0.0640314192062413  0.4303998092199963  0.0223462145285383
  0.5640314192062412  0.4303998092199963  0.0223462145285383
  0.0640314192062413  0.9303998092199963  0.0223462145285383
  0.5640314192062412  0.9303998092199963  0.0223462145285383
  0.0640314192062413  0.4303998092199963  0.5223462145285382
  0.5640314192062412  0.4303998092199963  0.5223462145285382
  0.0640314192062413  0.9303998092199963  0.5223462145285382
  0.5640314192062412  0.9303998092199963  0.5223462145285382
  0.4330941135227360  0.0381577385765111  0.0486568538432521
  0.9330941135227360  0.0381577385765111  0.0486568538432521
  0.4330941135227360  0.5381577385765112  0.0486568538432521
  0.9330941135227360  0.5381577385765112  0.0486568538432521
  0.4330941135227360  0.0381577385765111  0.5486568538432520
  0.9330941135227360  0.0381577385765111  0.5486568538432520
  0.4330941135227360  0.5381577385765112  0.5486568538432520
  0.9330941135227360  0.5381577385765112  0.5486568538432520
  0.0669058864772639  0.4618422614234888  0.4513431461567480
  0.5669058864772639  0.4618422614234888  0.4513431461567480
  0.0669058864772639  0.9618422614234887  0.4513431461567480
  0.5669058864772639  0.9618422614234887  0.4513431461567480
  0.0669058864772639  0.4618422614234888  0.9513431461567480
  0.5669058864772639  0.4618422614234888  0.9513431461567480
  0.0669058864772639  0.9618422614234887  0.9513431461567480
  0.5669058864772639  0.9618422614234887  0.9513431461567480
  0.4359685807937588  0.0696001907800037  0.4776537854714618
  0.9359685807937588  0.0696001907800037  0.4776537854714618
  0.4359685807937588  0.5696001907800037  0.4776537854714618
  0.9359685807937588  0.5696001907800037  0.4776537854714618
  0.4359685807937588  0.0696001907800037  0.9776537854714618
  0.9359685807937588  0.0696001907800037  0.9776537854714618
  0.4359685807937588  0.5696001907800037  0.9776537854714618
  0.9359685807937588  0.5696001907800037  0.9776537854714618
  0.0029017207832820  0.0312106234271916  0.4289129515187683
  0.5029017207832820  0.0312106234271916  0.4289129515187683
  0.0029017207832820  0.5312106234271916  0.4289129515187683
  0.5029017207832820  0.5312106234271916  0.4289129515187683
  0.0029017207832820  0.0312106234271916  0.9289129515187683
  0.5029017207832820  0.0312106234271916  0.9289129515187683
  0.0029017207832820  0.5312106234271916  0.9289129515187683
  0.5029017207832820  0.5312106234271916  0.9289129515187683
  0.4970982792167181  0.2812106234271916  0.3210870484812317
  0.9970982792167180  0.2812106234271916  0.3210870484812317
  0.4970982792167181  0.7812106234271916  0.3210870484812317
  0.9970982792167180  0.7812106234271916  0.3210870484812317
  0.4970982792167181  0.2812106234271916  0.8210870484812317
  0.9970982792167180  0.2812106234271916  0.8210870484812317
  0.4970982792167181  0.7812106234271916  0.8210870484812317
  0.9970982792167180  0.7812106234271916  0.8210870484812317
  0.0640314192062413  0.3196001907800037  0.2723462145285382
  0.5640314192062412  0.3196001907800037  0.2723462145285382
  0.0640314192062413  0.8196001907800037  0.2723462145285382
  0.5640314192062412  0.8196001907800037  0.2723462145285382
  0.0640314192062413  0.3196001907800037  0.7723462145285382
  0.5640314192062412  0.3196001907800037  0.7723462145285382
  0.0640314192062413  0.8196001907800037  0.7723462145285382
  0.5640314192062412  0.8196001907800037  0.7723462145285382
  0.4330941135227360  0.2118422614234889  0.2986568538432520
  0.9330941135227360  0.2118422614234889  0.2986568538432520
  0.4330941135227360  0.7118422614234888  0.2986568538432520
  0.9330941135227360  0.7118422614234888  0.2986568538432520
  0.4330941135227360  0.2118422614234889  0.7986568538432520
  0.9330941135227360  0.2118422614234889  0.7986568538432520
  0.4330941135227360  0.7118422614234888  0.7986568538432520
  0.9330941135227360  0.7118422614234888  0.7986568538432520
  0.0669058864772639  0.2881577385765112  0.2013431461567479
  0.5669058864772639  0.2881577385765112  0.2013431461567479
  0.0669058864772639  0.7881577385765113  0.2013431461567479
  0.5669058864772639  0.7881577385765113  0.2013431461567479
  0.0669058864772639  0.2881577385765112  0.7013431461567480
  0.5669058864772639  0.2881577385765112  0.7013431461567480
  0.0669058864772639  0.7881577385765113  0.7013431461567480
  0.5669058864772639  0.7881577385765113  0.7013431461567480
  0.4359685807937588  0.1803998092199963  0.2276537854714618
  0.9359685807937588  0.1803998092199963  0.2276537854714618
  0.4359685807937588  0.6803998092199963  0.2276537854714618
  0.9359685807937588  0.6803998092199963  0.2276537854714618
  0.4359685807937588  0.1803998092199963  0.7276537854714618
  0.9359685807937588  0.1803998092199963  0.7276537854714618
  0.4359685807937588  0.6803998092199963  0.7276537854714618
  0.9359685807937588  0.6803998092199963  0.7276537854714618
  0.0029017207832820  0.2187893765728084  0.1789129515187682
  0.5029017207832820  0.2187893765728084  0.1789129515187682
  0.0029017207832820  0.7187893765728084  0.1789129515187682
  0.5029017207832820  0.7187893765728084  0.1789129515187682
  0.0029017207832820  0.2187893765728084  0.6789129515187682
  0.5029017207832820  0.2187893765728084  0.6789129515187682
  0.0029017207832820  0.7187893765728084  0.6789129515187682
  0.5029017207832820  0.7187893765728084  0.6789129515187682
  0.2470982792167180  0.4687893765728084  0.1789129515187682
  0.7470982792167180  0.4687893765728084  0.1789129515187682
  0.2470982792167180  0.9687893765728084  0.1789129515187682
  0.7470982792167180  0.9687893765728084  0.1789129515187682
  0.2470982792167180  0.4687893765728084  0.6789129515187682
  0.7470982792167180  0.4687893765728084  0.6789129515187682
  0.2470982792167180  0.9687893765728084  0.6789129515187682
  0.7470982792167180  0.9687893765728084  0.6789129515187682
  0.3140314192062412  0.4303998092199963  0.2276537854714618
  0.8140314192062412  0.4303998092199963  0.2276537854714618
  0.3140314192062412  0.9303998092199963  0.2276537854714618
  0.8140314192062412  0.9303998092199963  0.2276537854714618
  0.3140314192062412  0.4303998092199963  0.7276537854714618
  0.8140314192062412  0.4303998092199963  0.7276537854714618
  0.3140314192062412  0.9303998092199963  0.7276537854714618
  0.8140314192062412  0.9303998092199963  0.7276537854714618
  0.1830941135227360  0.0381577385765111  0.2013431461567479
  0.6830941135227360  0.0381577385765111  0.2013431461567479
  0.1830941135227360  0.5381577385765112  0.2013431461567479
  0.6830941135227360  0.5381577385765112  0.2013431461567479
  0.1830941135227360  0.0381577385765111  0.7013431461567480
  0.6830941135227360  0.0381577385765111  0.7013431461567480
  0.1830941135227360  0.5381577385765112  0.7013431461567480
  0.6830941135227360  0.5381577385765112  0.7013431461567480
  0.3169058864772640  0.4618422614234888  0.2986568538432520
  0.8169058864772640  0.4618422614234888  0.2986568538432520
  0.3169058864772640  0.9618422614234887  0.2986568538432520
  0.8169058864772640  0.9618422614234887  0.2986568538432520
  0.3169058864772640  0.4618422614234888  0.7986568538432520
  0.8169058864772640  0.4618422614234888  0.7986568538432520
  0.3169058864772640  0.9618422614234887  0.7986568538432520
  0.8169058864772640  0.9618422614234887  0.7986568538432520
  0.1859685807937587  0.0696001907800037  0.2723462145285382
  0.6859685807937588  0.0696001907800037  0.2723462145285382
  0.1859685807937587  0.5696001907800037  0.2723462145285382
  0.6859685807937588  0.5696001907800037  0.2723462145285382
  0.1859685807937587  0.0696001907800037  0.7723462145285382
  0.6859685807937588  0.0696001907800037  0.7723462145285382
  0.1859685807937587  0.5696001907800037  0.7723462145285382
  0.6859685807937588  0.5696001907800037  0.7723462145285382
  0.2529017207832819  0.0312106234271916  0.3210870484812317
  0.7529017207832820  0.0312106234271916  0.3210870484812317
  0.2529017207832819  0.5312106234271916  0.3210870484812317
  0.7529017207832820  0.5312106234271916  0.3210870484812317
  0.2529017207832819  0.0312106234271916  0.8210870484812317
  0.7529017207832820  0.0312106234271916  0.8210870484812317
  0.2529017207832819  0.5312106234271916  0.8210870484812317
  0.7529017207832820  0.5312106234271916  0.8210870484812317
  0.2470982792167180  0.2812106234271916  0.4289129515187683
  0.7470982792167180  0.2812106234271916  0.4289129515187683
  0.2470982792167180  0.7812106234271916  0.4289129515187683
  0.7470982792167180  0.7812106234271916  0.4289129515187683
  0.2470982792167180  0.2812106234271916  0.9289129515187683
  0.7470982792167180  0.2812106234271916  0.9289129515187683
  0.2470982792167180  0.7812106234271916  0.9289129515187683
  0.7470982792167180  0.7812106234271916  0.9289129515187683
  0.3140314192062412  0.3196001907800037  0.4776537854714618
  0.8140314192062412  0.3196001907800037  0.4776537854714618
  0.3140314192062412  0.8196001907800037  0.4776537854714618
  0.8140314192062412  0.8196001907800037  0.4776537854714618
  0.3140314192062412  0.3196001907800037  0.9776537854714618
  0.8140314192062412  0.3196001907800037  0.9776537854714618
  0.3140314192062412  0.8196001907800037  0.9776537854714618
  0.8140314192062412  0.8196001907800037  0.9776537854714618
  0.1830941135227360  0.2118422614234889  0.4513431461567480
  0.6830941135227360  0.2118422614234889  0.4513431461567480
  0.1830941135227360  0.7118422614234888  0.4513431461567480
  0.6830941135227360  0.7118422614234888  0.4513431461567480
  0.1830941135227360  0.2118422614234889  0.9513431461567480
  0.6830941135227360  0.2118422614234889  0.9513431461567480
  0.1830941135227360  0.7118422614234888  0.9513431461567480
  0.6830941135227360  0.7118422614234888  0.9513431461567480
  0.3169058864772640  0.2881577385765112  0.0486568538432521
  0.8169058864772640  0.2881577385765112  0.0486568538432521
  0.3169058864772640  0.7881577385765113  0.0486568538432521
  0.8169058864772640  0.7881577385765113  0.0486568538432521
  0.3169058864772640  0.2881577385765112  0.5486568538432520
  0.8169058864772640  0.2881577385765112  0.5486568538432520
  0.3169058864772640  0.7881577385765113  0.5486568538432520
  0.8169058864772640  0.7881577385765113  0.5486568538432520
  0.1859685807937587  0.1803998092199963  0.0223462145285383
  0.6859685807937588  0.1803998092199963  0.0223462145285383
  0.1859685807937587  0.6803998092199963  0.0223462145285383
  0.6859685807937588  0.6803998092199963  0.0223462145285383
  0.1859685807937587  0.1803998092199963  0.5223462145285382
  0.6859685807937588  0.1803998092199963  0.5223462145285382
  0.1859685807937587  0.6803998092199963  0.5223462145285382
  0.6859685807937588  0.6803998092199963  0.5223462145285382
  0.2529017207832819  0.2187893765728084  0.0710870484812317
  0.7529017207832820  0.2187893765728084  0.0710870484812317
  0.2529017207832819  0.7187893765728084  0.0710870484812317
  0.7529017207832820  0.7187893765728084  0.0710870484812317
  0.2529017207832819  0.2187893765728084  0.5710870484812317
  0.7529017207832820  0.2187893765728084  0.5710870484812317
  0.2529017207832819  0.7187893765728084  0.5710870484812317
  0.7529017207832820  0.7187893765728084  0.5710870484812317
  0.4946812584018331  0.4446549668700217  0.1265912109407245
  0.9946812584018332  0.4446549668700217  0.1265912109407245
  0.4946812584018331  0.9446549668700217  0.1265912109407245
  0.9946812584018332  0.9446549668700217  0.1265912109407245
  0.4946812584018331  0.4446549668700217  0.6265912109407246
  0.9946812584018332  0.4446549668700217  0.6265912109407246
  0.4946812584018331  0.9446549668700217  0.6265912109407246
  0.9946812584018332  0.9446549668700217  0.6265912109407246
  0.1138329870139857  0.3757603423135376  0.0390795381126930
  0.6138329870139857  0.3757603423135376  0.0390795381126930
  0.1138329870139857  0.8757603423135376  0.0390795381126930
  0.6138329870139857  0.8757603423135376  0.0390795381126930
  0.1138329870139857  0.3757603423135376  0.5390795381126930
  0.6138329870139857  0.3757603423135376  0.5390795381126930
  0.1138329870139857  0.8757603423135376  0.5390795381126930
  0.6138329870139857  0.8757603423135376  0.5390795381126930
  0.3802557159757727  0.0675933315818354  0.0863660037006101
  0.8802557159757727  0.0675933315818354  0.0863660037006101
  0.3802557159757727  0.5675933315818354  0.0863660037006101
  0.8802557159757727  0.5675933315818354  0.0863660037006101
  0.3802557159757727  0.0675933315818354  0.5863660037006101
  0.8802557159757727  0.0675933315818354  0.5863660037006101
  0.3802557159757727  0.5675933315818354  0.5863660037006101
  0.8802557159757727  0.5675933315818354  0.5863660037006101
  0.1197442840242273  0.4324066684181611  0.4136339962993897
  0.6197442840242273  0.4324066684181611  0.4136339962993897
  0.1197442840242273  0.9324066684181611  0.4136339962993897
  0.6197442840242273  0.9324066684181611  0.4136339962993897
  0.1197442840242273  0.4324066684181611  0.9136339962993898
  0.6197442840242273  0.4324066684181611  0.9136339962993898
  0.1197442840242273  0.9324066684181611  0.9136339962993898
  0.6197442840242273  0.9324066684181611  0.9136339962993898
  0.3861670129860144  0.1242396576864625  0.4609204618873071
  0.8861670129860144  0.1242396576864625  0.4609204618873071
  0.3861670129860144  0.6242396576864625  0.4609204618873071
  0.8861670129860144  0.6242396576864625  0.4609204618873071
  0.3861670129860144  0.1242396576864625  0.9609204618873071
  0.8861670129860144  0.1242396576864625  0.9609204618873071
  0.3861670129860144  0.6242396576864625  0.9609204618873071
  0.8861670129860144  0.6242396576864625  0.9609204618873071
  0.0053187415981669  0.0553450331299783  0.3734087890592754
  0.5053187415981668  0.0553450331299783  0.3734087890592754
  0.0053187415981669  0.5553450331299783  0.3734087890592754
  0.5053187415981668  0.5553450331299783  0.3734087890592754
  0.0053187415981669  0.0553450331299783  0.8734087890592754
  0.5053187415981668  0.0553450331299783  0.8734087890592754
  0.0053187415981669  0.5553450331299783  0.8734087890592754
  0.5053187415981668  0.5553450331299783  0.8734087890592754
  0.4946812584018331  0.3053450331299783  0.3765912109407246
  0.9946812584018332  0.3053450331299783  0.3765912109407246
  0.4946812584018331  0.8053450331299783  0.3765912109407246
  0.9946812584018332  0.8053450331299783  0.3765912109407246
  0.4946812584018331  0.3053450331299783  0.8765912109407246
  0.9946812584018332  0.3053450331299783  0.8765912109407246
  0.4946812584018331  0.8053450331299783  0.8765912109407246
  0.9946812584018332  0.8053450331299783  0.8765912109407246
  0.1138329870139857  0.3742396576864624  0.2890795381126929
  0.6138329870139857  0.3742396576864624  0.2890795381126929
  0.1138329870139857  0.8742396576864624  0.2890795381126929
  0.6138329870139857  0.8742396576864624  0.2890795381126929
  0.1138329870139857  0.3742396576864624  0.7890795381126929
  0.6138329870139857  0.3742396576864624  0.7890795381126929
  0.1138329870139857  0.8742396576864624  0.7890795381126929
  0.6138329870139857  0.8742396576864624  0.7890795381126929
  0.3802557159757727  0.1824066684181646  0.3363660037006103
  0.8802557159757727  0.1824066684181646  0.3363660037006103
  0.3802557159757727  0.6824066684181647  0.3363660037006103
  0.8802557159757727  0.6824066684181647  0.3363660037006103
  0.3802557159757727  0.1824066684181646  0.8363660037006102
  0.8802557159757727  0.1824066684181646  0.8363660037006102
  0.3802557159757727  0.6824066684181647  0.8363660037006102
  0.8802557159757727  0.6824066684181647  0.8363660037006102
  0.1197442840242273  0.3175933315818389  0.1636339962993899
  0.6197442840242273  0.3175933315818389  0.1636339962993899
  0.1197442840242273  0.8175933315818389  0.1636339962993899
  0.6197442840242273  0.8175933315818389  0.1636339962993899
  0.1197442840242273  0.3175933315818389  0.6636339962993899
  0.6197442840242273  0.3175933315818389  0.6636339962993899
  0.1197442840242273  0.8175933315818389  0.6636339962993899
  0.6197442840242273  0.8175933315818389  0.6636339962993899
  0.3861670129860144  0.1257603423135375  0.2109204618873070
  0.8861670129860144  0.1257603423135375  0.2109204618873070
  0.3861670129860144  0.6257603423135375  0.2109204618873070
  0.8861670129860144  0.6257603423135375  0.2109204618873070
  0.3861670129860144  0.1257603423135375  0.7109204618873071
  0.8861670129860144  0.1257603423135375  0.7109204618873071
  0.3861670129860144  0.6257603423135375  0.7109204618873071
  0.8861670129860144  0.6257603423135375  0.7109204618873071
  0.0053187415981669  0.1946549668700216  0.1234087890592755
  0.5053187415981668  0.1946549668700216  0.1234087890592755
  0.0053187415981669  0.6946549668700216  0.1234087890592755
  0.5053187415981668  0.6946549668700216  0.1234087890592755
  0.0053187415981669  0.1946549668700216  0.6234087890592755
  0.5053187415981668  0.1946549668700216  0.6234087890592755
  0.0053187415981669  0.6946549668700216  0.6234087890592755
  0.5053187415981668  0.6946549668700216  0.6234087890592755
  0.2446812584018332  0.4446549668700217  0.1234087890592755
  0.7446812584018332  0.4446549668700217  0.1234087890592755
  0.2446812584018332  0.9446549668700217  0.1234087890592755
  0.7446812584018332  0.9446549668700217  0.1234087890592755
  0.2446812584018332  0.4446549668700217  0.6234087890592755
  0.7446812584018332  0.4446549668700217  0.6234087890592755
  0.2446812584018332  0.9446549668700217  0.6234087890592755
  0.7446812584018332  0.9446549668700217  0.6234087890592755
  0.3638329870139856  0.3757603423135376  0.2109204618873070
  0.8638329870139856  0.3757603423135376  0.2109204618873070
  0.3638329870139856  0.8757603423135376  0.2109204618873070
  0.8638329870139856  0.8757603423135376  0.2109204618873070
  0.3638329870139856  0.3757603423135376  0.7109204618873071
  0.8638329870139856  0.3757603423135376  0.7109204618873071
  0.3638329870139856  0.8757603423135376  0.7109204618873071
  0.8638329870139856  0.8757603423135376  0.7109204618873071
  0.1302557159757727  0.0675933315818354  0.1636339962993899
  0.6302557159757727  0.0675933315818354  0.1636339962993899
  0.1302557159757727  0.5675933315818354  0.1636339962993899
  0.6302557159757727  0.5675933315818354  0.1636339962993899
  0.1302557159757727  0.0675933315818354  0.6636339962993899
  0.6302557159757727  0.0675933315818354  0.6636339962993899
  0.1302557159757727  0.5675933315818354  0.6636339962993899
  0.6302557159757727  0.5675933315818354  0.6636339962993899
  0.3697442840242273  0.4324066684181611  0.3363660037006103
  0.8697442840242273  0.4324066684181611  0.3363660037006103
  0.3697442840242273  0.9324066684181611  0.3363660037006103
  0.8697442840242273  0.9324066684181611  0.3363660037006103
  0.3697442840242273  0.4324066684181611  0.8363660037006102
  0.8697442840242273  0.4324066684181611  0.8363660037006102
  0.3697442840242273  0.9324066684181611  0.8363660037006102
  0.8697442840242273  0.9324066684181611  0.8363660037006102
  0.1361670129860142  0.1242396576864625  0.2890795381126929
  0.6361670129860142  0.1242396576864625  0.2890795381126929
  0.1361670129860142  0.6242396576864625  0.2890795381126929
  0.6361670129860142  0.6242396576864625  0.2890795381126929
  0.1361670129860142  0.1242396576864625  0.7890795381126929
  0.6361670129860142  0.1242396576864625  0.7890795381126929
  0.1361670129860142  0.6242396576864625  0.7890795381126929
  0.6361670129860142  0.6242396576864625  0.7890795381126929
  0.2553187415981669  0.0553450331299783  0.3765912109407246
  0.7553187415981668  0.0553450331299783  0.3765912109407246
  0.2553187415981669  0.5553450331299783  0.3765912109407246
  0.7553187415981668  0.5553450331299783  0.3765912109407246
  0.2553187415981669  0.0553450331299783  0.8765912109407246
  0.7553187415981668  0.0553450331299783  0.8765912109407246
  0.2553187415981669  0.5553450331299783  0.8765912109407246
  0.7553187415981668  0.5553450331299783  0.8765912109407246
  0.2446812584018332  0.3053450331299783  0.3734087890592754
  0.7446812584018332  0.3053450331299783  0.3734087890592754
  0.2446812584018332  0.8053450331299783  0.3734087890592754
  0.7446812584018332  0.8053450331299783  0.3734087890592754
  0.2446812584018332  0.3053450331299783  0.8734087890592754
  0.7446812584018332  0.3053450331299783  0.8734087890592754
  0.2446812584018332  0.8053450331299783  0.8734087890592754
  0.7446812584018332  0.8053450331299783  0.8734087890592754
  0.3638329870139856  0.3742396576864624  0.4609204618873071
  0.8638329870139856  0.3742396576864624  0.4609204618873071
  0.3638329870139856  0.8742396576864624  0.4609204618873071
  0.8638329870139856  0.8742396576864624  0.4609204618873071
  0.3638329870139856  0.3742396576864624  0.9609204618873071
  0.8638329870139856  0.3742396576864624  0.9609204618873071
  0.3638329870139856  0.8742396576864624  0.9609204618873071
  0.8638329870139856  0.8742396576864624  0.9609204618873071
  0.1302557159757727  0.1824066684181646  0.4136339962993897
  0.6302557159757727  0.1824066684181646  0.4136339962993897
  0.1302557159757727  0.6824066684181647  0.4136339962993897
  0.6302557159757727  0.6824066684181647  0.4136339962993897
  0.1302557159757727  0.1824066684181646  0.9136339962993898
  0.6302557159757727  0.1824066684181646  0.9136339962993898
  0.1302557159757727  0.6824066684181647  0.9136339962993898
  0.6302557159757727  0.6824066684181647  0.9136339962993898
  0.3697442840242273  0.3175933315818389  0.0863660037006101
  0.8697442840242273  0.3175933315818389  0.0863660037006101
  0.3697442840242273  0.8175933315818389  0.0863660037006101
  0.8697442840242273  0.8175933315818389  0.0863660037006101
  0.3697442840242273  0.3175933315818389  0.5863660037006101
  0.8697442840242273  0.3175933315818389  0.5863660037006101
  0.3697442840242273  0.8175933315818389  0.5863660037006101
  0.8697442840242273  0.8175933315818389  0.5863660037006101
  0.1361670129860142  0.1257603423135375  0.0390795381126930
  0.6361670129860142  0.1257603423135375  0.0390795381126930
  0.1361670129860142  0.6257603423135375  0.0390795381126930
  0.6361670129860142  0.6257603423135375  0.0390795381126930
  0.1361670129860142  0.1257603423135375  0.5390795381126930
  0.6361670129860142  0.1257603423135375  0.5390795381126930
  0.1361670129860142  0.6257603423135375  0.5390795381126930
  0.6361670129860142  0.6257603423135375  0.5390795381126930
  0.2553187415981669  0.1946549668700216  0.1265912109407245
  0.7553187415981668  0.1946549668700216  0.1265912109407245
  0.2553187415981669  0.6946549668700216  0.1265912109407245
  0.7553187415981668  0.6946549668700216  0.1265912109407245
  0.2553187415981669  0.1946549668700216  0.6265912109407246
  0.7553187415981668  0.1946549668700216  0.6265912109407246
  0.2553187415981669  0.6946549668700216  0.6265912109407246
  0.7553187415981668  0.6946549668700216  0.6265912109407246
