Fe                                      
   1.00000000000000     
     2.8317755879434938    0.0000000000000000    0.0000000000000000
     0.0000000000000000    2.8317755879434938    0.0000000000000000
     0.0000000000000000    0.0000000000000000    2.8317755879434938
   Fe
     2
Direct
  0.5000000000000000  0.5000000000000000  0.5000000000000000
  0.0000000000000000  0.0000000000000000  0.0000000000000000
 
  0.00000000E+00  0.00000000E+00  0.00000000E+00
  0.00000000E+00  0.00000000E+00  0.00000000E+00
