SYSTEM=Fe
PREC=accurate
ISPIN=2
EDIFF=1e-7
NSW=0
ISYM=0
ENCUT=500
NBANDS=16
MAGMOM= 3 3
ISMEAR=-5
NWRITE=0
LWAVE=.TRUE.
LCHARG=.FALSE.
