# Generated by Phonopy, based on Phonopy-WSe2.inp
# Original configuration with the generated supercell for comparison
&FORCE_EVAL
   METHOD QUICKSTEP
   STRESS_TENSOR ANALYTICAL
   &PRINT
      &FORCES
         ADD_LAST NUMERIC
         FILENAME forces
      &END FORCES
      &STRESS_TENSOR
         ADD_LAST NUMERIC
         FILENAME stress_tensor
      &END STRESS_TENSOR
   &END PRINT
   &SUBSYS
      &KIND Au
         BASIS_SET TZVP-MOLOPT-PBE-GTH-q11
         POTENTIAL GTH-PBE-q11
      &END KIND
      &KIND Se
         BASIS_SET TZVP-MOLOPT-PBE-GTH-q6
         POTENTIAL GTH-PBE-q6
      &END KIND
      &KIND W
         BASIS_SET TZVP-MOLOPT-PBE-GTH-q14
         POTENTIAL GTH-PBE-q14
      &END KIND
      &COORD
Au -10.4442186919		 19.5732700000		 27.4550000000
Au  10.1917813082		 19.5732700000		 27.4550000000
Au  -8.9702186919		 22.1262700000		 27.4550000000
Au  -8.9702186919		 17.0202700000		 27.4550000000
Au  -7.4962186919		 24.6793500000		 27.4550000000
Au  -7.4962186919		 19.5732700000		 27.4550000000
Au  -7.4962186919		 14.4671900000		 27.4550000000
Au  -6.0222186919		 27.2323500000		 27.4550000000
Au  -6.0222186919		 22.1263500000		 27.4550000000
Au  -6.0222186919		 17.0201900000		 27.4550000000
Au  -6.0222186919		 11.9141900000		 27.4550000000
Au  -4.5482186919		 29.7854300000		 27.4550000000
Au  -4.5482186919		 24.6793500000		 27.4550000000
Au  -4.5482186919		 19.5732700000		 27.4550000000
Au  -4.5482186919		 14.4671900000		 27.4550000000
Au  -4.5482186919		  9.3611100000		 27.4550000000
Au  -3.0742186919		 11.9141100000		 27.4550000000
Au  -3.0742186919		  6.8081100000		 27.4550000000
Au  -3.0742186918		 32.3384300000		 27.4550000000
Au  -3.0742186918		 27.2324300000		 27.4550000000
Au  -3.0742186918		 22.1262700000		 27.4550000000
Au  -3.0742186918		 17.0202700000		 27.4550000000
Au  -1.6002186919		 14.4671900000		 27.4550000000
Au  -1.6002186919		  9.3611100000		 27.4550000000
Au  -1.6002186919		  4.2550300000		 27.4550000000
Au  -1.6002186918		 34.8915100000		 27.4550000000
Au  -1.6002186918		 29.7854300000		 27.4550000000
Au  -1.6002186918		 24.6793500000		 27.4550000000
Au  -1.6002186918		 19.5732700000		 27.4550000000
Au  -0.1262186919		 37.4445100000		 27.4550000000
Au  -0.1262186919		 32.3385100000		 27.4550000000
Au  -0.1262186919		 27.2323500000		 27.4550000000
Au  -0.1262186919		 22.1263500000		 27.4550000000
Au  -0.1262186919		 17.0201900000		 27.4550000000
Au  -0.1262186919		 11.9141900000		 27.4550000000
Au  -0.1262186919		  6.8080300000		 27.4550000000
Au  -0.1262186919		  1.7020300000		 27.4550000000
Au   8.7177813082		 22.1262700000		 27.4550000000
Au   8.7177813082		 17.0202700000		 27.4550000000
Au   7.2437813081		 24.6793500000		 27.4550000000
Au   7.2437813081		 19.5732700000		 27.4550000000
Au   7.2437813081		 14.4671900000		 27.4550000000
Au   5.7697813081		 27.2323500000		 27.4550000000
Au   5.7697813081		 22.1263500000		 27.4550000000
Au   5.7697813081		 17.0201900000		 27.4550000000
Au   5.7697813081		 11.9141900000		 27.4550000000
Au   4.2957813081		 29.7854300000		 27.4550000000
Au   4.2957813081		 24.6793500000		 27.4550000000
Au   4.2957813081		 19.5732700000		 27.4550000000
Au   4.2957813081		 14.4671900000		 27.4550000000
Au   4.2957813081		  9.3611100000		 27.4550000000
Au   2.8217813082		 32.3384300000		 27.4550000000
Au   2.8217813082		 27.2324300000		 27.4550000000
Au   2.8217813081		 22.1262700000		 27.4550000000
Au   2.8217813081		 17.0202700000		 27.4550000000
Au   2.8217813081		 11.9141100000		 27.4550000000
Au   2.8217813081		  6.8081100000		 27.4550000000
Au   1.3477813081		 34.8915100000		 27.4550000000
Au   1.3477813081		 29.7854300000		 27.4550000000
Au   1.3477813081		 24.6793500000		 27.4550000000
Au   1.3477813081		 19.5732700000		 27.4550000000
Au   1.3477813081		 14.4671900000		 27.4550000000
Au   1.3477813081		  9.3611100000		 27.4550000000
Au   1.3477813081		  4.2550300000		 27.4550000000
Au -10.4442186919		 21.2752700000		 25.0480000000
Au  10.1917813082		 21.2752700000		 25.0480000000
Au  -8.9702186919		 23.8283700000		 25.0480000000
Au  -8.9702186919		 18.7222700000		 25.0480000000
Au  -7.4962186919		 26.3813500000		 25.0480000000
Au  -7.4962186919		 21.2752700000		 25.0480000000
Au  -7.4962186919		 16.1691900000		 25.0480000000
Au  -6.0222186919		 28.9344500000		 25.0480000000
Au  -6.0222186919		 23.8283500000		 25.0480000000
Au  -6.0222186919		 18.7222900000		 25.0480000000
Au  -6.0222186919		 13.6161900000		 25.0480000000
Au  -4.5482186919		 31.4874300000		 25.0480000000
Au  -4.5482186919		 26.3813500000		 25.0480000000
Au  -4.5482186919		 21.2752700000		 25.0480000000
Au  -4.5482186919		 16.1691900000		 25.0480000000
Au  -4.5482186919		 11.0631100000		 25.0480000000
Au  -3.0742186919		 13.6162100000		 25.0480000000
Au  -3.0742186919		  8.5101100000		 25.0480000000
Au  -3.0742186918		 34.0405300000		 25.0480000000
Au  -3.0742186918		 28.9344300000		 25.0480000000
Au  -3.0742186918		 23.8283700000		 25.0480000000
Au  -3.0742186918		 18.7222700000		 25.0480000000
Au  -1.6002186919		 16.1691900000		 25.0480000000
Au  -1.6002186919		 11.0631100000		 25.0480000000
Au  -1.6002186919		  5.9570300000		 25.0480000000
Au  -1.6002186918		 36.5935100000		 25.0480000000
Au  -1.6002186918		 31.4874300000		 25.0480000000
Au  -1.6002186918		 26.3813500000		 25.0480000000
Au  -1.6002186918		 21.2752700000		 25.0480000000
Au  -0.1262186919		 39.1466100000		 25.0480000000
Au  -0.1262186919		 34.0405100000		 25.0480000000
Au  -0.1262186919		 28.9344500000		 25.0480000000
Au  -0.1262186919		 23.8283500000		 25.0480000000
Au  -0.1262186919		 18.7222900000		 25.0480000000
Au  -0.1262186919		 13.6161900000		 25.0480000000
Au  -0.1262186919		  8.5101300000		 25.0480000000
Au  -0.1262186919		  3.4040300000		 25.0480000000
Au   8.7177813082		 23.8283700000		 25.0480000000
Au   8.7177813082		 18.7222700000		 25.0480000000
Au   7.2437813081		 26.3813500000		 25.0480000000
Au   7.2437813081		 21.2752700000		 25.0480000000
Au   7.2437813081		 16.1691900000		 25.0480000000
Au   5.7697813081		 28.9344500000		 25.0480000000
Au   5.7697813081		 23.8283500000		 25.0480000000
Au   5.7697813081		 18.7222900000		 25.0480000000
Au   5.7697813081		 13.6161900000		 25.0480000000
Au   4.2957813081		 31.4874300000		 25.0480000000
Au   4.2957813081		 26.3813500000		 25.0480000000
Au   4.2957813081		 21.2752700000		 25.0480000000
Au   4.2957813081		 16.1691900000		 25.0480000000
Au   4.2957813081		 11.0631100000		 25.0480000000
Au   2.8217813082		 34.0405300000		 25.0480000000
Au   2.8217813082		 28.9344300000		 25.0480000000
Au   2.8217813081		 23.8283700000		 25.0480000000
Au   2.8217813081		 18.7222700000		 25.0480000000
Au   2.8217813081		 13.6162100000		 25.0480000000
Au   2.8217813081		  8.5101100000		 25.0480000000
Au   1.3477813081		 36.5935100000		 25.0480000000
Au   1.3477813081		 31.4874300000		 25.0480000000
Au   1.3477813081		 26.3813500000		 25.0480000000
Au   1.3477813081		 21.2752700000		 25.0480000000
Au   1.3477813081		 16.1691900000		 25.0480000000
Au   1.3477813081		 11.0631100000		 25.0480000000
Au   1.3477813081		  5.9570300000		 25.0480000000
Au -10.4442186919		 19.5732700000		 13.7665253517
Au  10.1917813082		 19.5732700000		 13.7665253517
Au  -8.9702186919		 22.1262700000		 13.7665253517
Au  -8.9702186919		 17.0202700000		 13.7665253517
Au  -7.4962186919		 24.6793500000		 13.7665253517
Au  -7.4962186919		 19.5732700000		 13.7665253517
Au  -7.4962186919		 14.4671900000		 13.7665253517
Au  -6.0222186919		 27.2323500000		 13.7665253517
Au  -6.0222186919		 22.1263500000		 13.7665253517
Au  -6.0222186919		 17.0201900000		 13.7665253517
Au  -6.0222186919		 11.9141900000		 13.7665253517
Au  -4.5482186919		 29.7854300000		 13.7665253517
Au  -4.5482186919		 24.6793500000		 13.7665253517
Au  -4.5482186919		 19.5732700000		 13.7665253517
Au  -4.5482186919		 14.4671900000		 13.7665253517
Au  -4.5482186919		  9.3611100000		 13.7665253517
Au  -3.0742186919		 11.9141100000		 13.7665253517
Au  -3.0742186919		  6.8081100000		 13.7665253517
Au  -3.0742186918		 32.3384300000		 13.7665253517
Au  -3.0742186918		 27.2324300000		 13.7665253517
Au  -3.0742186918		 22.1262700000		 13.7665253517
Au  -3.0742186918		 17.0202700000		 13.7665253517
Au  -1.6002186919		 14.4671900000		 13.7665253517
Au  -1.6002186919		  9.3611100000		 13.7665253517
Au  -1.6002186919		  4.2550300000		 13.7665253517
Au  -1.6002186918		 34.8915100000		 13.7665253517
Au  -1.6002186918		 29.7854300000		 13.7665253517
Au  -1.6002186918		 24.6793500000		 13.7665253517
Au  -1.6002186918		 19.5732700000		 13.7665253517
Au  -0.1262186919		 37.4445100000		 13.7665253517
Au  -0.1262186919		 32.3385100000		 13.7665253517
Au  -0.1262186919		 27.2323500000		 13.7665253517
Au  -0.1262186919		 22.1263500000		 13.7665253517
Au  -0.1262186919		 17.0201900000		 13.7665253517
Au  -0.1262186919		 11.9141900000		 13.7665253517
Au  -0.1262186919		  6.8080300000		 13.7665253517
Au  -0.1262186919		  1.7020300000		 13.7665253517
Au   8.7177813082		 22.1262700000		 13.7665253517
Au   8.7177813082		 17.0202700000		 13.7665253517
Au   7.2437813081		 24.6793500000		 13.7665253517
Au   7.2437813081		 19.5732700000		 13.7665253517
Au   7.2437813081		 14.4671900000		 13.7665253517
Au   5.7697813081		 27.2323500000		 13.7665253517
Au   5.7697813081		 22.1263500000		 13.7665253517
Au   5.7697813081		 17.0201900000		 13.7665253517
Au   5.7697813081		 11.9141900000		 13.7665253517
Au   4.2957813081		 29.7854300000		 13.7665253517
Au   4.2957813081		 24.6793500000		 13.7665253517
Au   4.2957813081		 19.5732700000		 13.7665253517
Au   4.2957813081		 14.4671900000		 13.7665253517
Au   4.2957813081		  9.3611100000		 13.7665253517
Au   2.8217813082		 32.3384300000		 13.7665253517
Au   2.8217813082		 27.2324300000		 13.7665253517
Au   2.8217813081		 22.1262700000		 13.7665253517
Au   2.8217813081		 17.0202700000		 13.7665253517
Au   2.8217813081		 11.9141100000		 13.7665253517
Au   2.8217813081		  6.8081100000		 13.7665253517
Au   1.3477813081		 34.8915100000		 13.7665253517
Au   1.3477813081		 29.7854300000		 13.7665253517
Au   1.3477813081		 24.6793500000		 13.7665253517
Au   1.3477813081		 19.5732700000		 13.7665253517
Au   1.3477813081		 14.4671900000		 13.7665253517
Au   1.3477813081		  9.3611100000		 13.7665253517
Au   1.3477813081		  4.2550300000		 13.7665253517
Au -10.4442186919		 21.2752700000		 11.3595253517
Au  10.1917813082		 21.2752700000		 11.3595253517
Au  -8.9702186919		 23.8283700000		 11.3595253517
Au  -8.9702186919		 18.7222700000		 11.3595253517
Au  -7.4962186919		 26.3813500000		 11.3595253517
Au  -7.4962186919		 21.2752700000		 11.3595253517
Au  -7.4962186919		 16.1691900000		 11.3595253517
Au  -6.0222186919		 28.9344500000		 11.3595253517
Au  -6.0222186919		 23.8283500000		 11.3595253517
Au  -6.0222186919		 18.7222900000		 11.3595253517
Au  -6.0222186919		 13.6161900000		 11.3595253517
Au  -4.5482186919		 31.4874300000		 11.3595253517
Au  -4.5482186919		 26.3813500000		 11.3595253517
Au  -4.5482186919		 21.2752700000		 11.3595253517
Au  -4.5482186919		 16.1691900000		 11.3595253517
Au  -4.5482186919		 11.0631100000		 11.3595253517
Au  -3.0742186919		 13.6162100000		 11.3595253517
Au  -3.0742186919		  8.5101100000		 11.3595253517
Au  -3.0742186918		 34.0405300000		 11.3595253517
Au  -3.0742186918		 28.9344300000		 11.3595253517
Au  -3.0742186918		 23.8283700000		 11.3595253517
Au  -3.0742186918		 18.7222700000		 11.3595253517
Au  -1.6002186919		 16.1691900000		 11.3595253517
Au  -1.6002186919		 11.0631100000		 11.3595253517
Au  -1.6002186919		  5.9570300000		 11.3595253517
Au  -1.6002186918		 36.5935100000		 11.3595253517
Au  -1.6002186918		 31.4874300000		 11.3595253517
Au  -1.6002186918		 26.3813500000		 11.3595253517
Au  -1.6002186918		 21.2752700000		 11.3595253517
Au  -0.1262186919		 39.1466100000		 11.3595253517
Au  -0.1262186919		 34.0405100000		 11.3595253517
Au  -0.1262186919		 28.9344500000		 11.3595253517
Au  -0.1262186919		 23.8283500000		 11.3595253517
Au  -0.1262186919		 18.7222900000		 11.3595253517
Au  -0.1262186919		 13.6161900000		 11.3595253517
Au  -0.1262186919		  8.5101300000		 11.3595253517
Au  -0.1262186919		  3.4040300000		 11.3595253517
Au   8.7177813082		 23.8283700000		 11.3595253517
Au   8.7177813082		 18.7222700000		 11.3595253517
Au   7.2437813081		 26.3813500000		 11.3595253517
Au   7.2437813081		 21.2752700000		 11.3595253517
Au   7.2437813081		 16.1691900000		 11.3595253517
Au   5.7697813081		 28.9344500000		 11.3595253517
Au   5.7697813081		 23.8283500000		 11.3595253517
Au   5.7697813081		 18.7222900000		 11.3595253517
Au   5.7697813081		 13.6161900000		 11.3595253517
Au   4.2957813081		 31.4874300000		 11.3595253517
Au   4.2957813081		 26.3813500000		 11.3595253517
Au   4.2957813081		 21.2752700000		 11.3595253517
Au   4.2957813081		 16.1691900000		 11.3595253517
Au   4.2957813081		 11.0631100000		 11.3595253517
Au   2.8217813082		 34.0405300000		 11.3595253517
Au   2.8217813082		 28.9344300000		 11.3595253517
Au   2.8217813081		 23.8283700000		 11.3595253517
Au   2.8217813081		 18.7222700000		 11.3595253517
Au   2.8217813081		 13.6162100000		 11.3595253517
Au   2.8217813081		  8.5101100000		 11.3595253517
Au   1.3477813081		 36.5935100000		 11.3595253517
Au   1.3477813081		 31.4874300000		 11.3595253517
Au   1.3477813081		 26.3813500000		 11.3595253517
Au   1.3477813081		 21.2752700000		 11.3595253517
Au   1.3477813081		 16.1691900000		 11.3595253517
Au   1.3477813081		 11.0631100000		 11.3595253517
Au   1.3477813081		  5.9570300000		 11.3595253517
         W 4.790255592299999 15.339323824299997 18.4374705154
         W 1.8422556153999996 20.4454038127 18.4374704157
         W -4.053744412600001 20.4454038108 18.4374703052
         W -4.05374439 30.6575637739 18.437470231999995
         W -1.1057443418000004 25.5514837491 18.4374701806
         W -1.1057443746999998 15.3393238407 18.4374700852
         W 7.738255581800001 20.4454037832 18.4374700389
         W -7.001744329599999 25.5514838126 18.4374700065
         W 1.8422556407999997 10.2332437673 18.437469988
         W -1.1057443621 35.7636437599 18.4374699668
         W -9.9497443605 20.4454037176 18.4374698466
         W -7.0017443955 15.3393237257 18.437469742
         W 1.842255597700001 30.6575637042 18.4374696333
         W -1.105744345 5.1271637643 18.437469612599998
         W 4.790255638999999 25.55148375 18.4374695956
         W -4.0537444047 10.233243771 18.437469385399996
         W 1.8392635009 17.0424463615 18.437396385399996
         W -1.1087364792000005 22.148526345 18.4373963597
         W 4.787263513 11.9363663493 18.4373962774
         W 7.7352634994 17.0424462987 18.4373961728
         W -4.0567364461 27.2546062726 18.4373960985
         W 4.787263490999999 22.1485262945 18.4373959933
         W -4.056736477300001 17.0424463279 18.4373959872
         W -7.0047364529000005 22.1485263216 18.4373959596
         W -1.108736494900001 32.3606862527 18.437395883999997
         W 1.8392635454 37.466766280600005 18.4373957408
         W 1.8392635246000002 6.830286273 18.4373957385
         W 10.6832635469 22.148526288800003 18.4373957083
         W 1.8392635128 27.2546062816 18.4373956538
         W -1.1087364850999997 11.9363663057 18.4373956289
         W 4.7872634816 32.360686254300006 18.4373954155
         W 7.735263545 27.254606260500005 18.4373953086
         W 4.787815965000002 18.7412433246 18.437325091
         W -1.108184041799999 18.7412433712 18.437325074
         W 7.7358160264 13.6351633032 18.437324998199998
         W -4.056183993100001 23.8473233037 18.437324961199998
         W 1.8398159665000005 13.635163328299999 18.4373248984
         W 4.7878159822 8.5290833209 18.437324797099997
         W 1.839816015300001 23.8473232746 18.437324773399997
         W -1.1081840469000002 28.9534032789 18.4373246582
         W -7.004184008300001 18.7412432472 18.437324657799998
         W 10.6838159554 18.7412432719 18.4373245991
         W 1.8398160486 3.4230032437 18.4373244707
         W 1.8398159831999992 34.0594831711 18.4373244055
         W 7.735816005 23.847323221999996 18.4373243537
         W -4.056184027899999 13.6351632574 18.4373243076
         W -1.1081840048000002 8.5290832712 18.4373242529
         W 4.787815981199999 28.953403219799995 18.437324068399995
         W 4.7877537202 32.3216633477 6.713598388
         W 1.8397537782999998 37.4277433407 6.713598376
         W -1.1082462896999985 32.3216633244 6.7135983212
         W 7.735753711 27.215583393400003 6.7135982663
         W -1.1082462961000001 11.8973434214 6.713598262699999
         W -4.0562463137 17.0034233564 6.713598222799999
         W 4.7877537042 11.897343376099998 6.7135982094
         W -7.0042462663 22.1095033714 6.7135981946
         W 7.735753724199999 17.0034233981 6.7135981921
         W 1.8397536818000004 17.0034233828 6.7135981833
         W 10.68375376 22.109503342900002 6.7135981823
         W 4.787753661500001 22.1095033561 6.7135981571
         W -4.0562462871000005 27.2155833833 6.7135981455
         W 1.839753696400001 27.2155833232 6.7135980708
         W 1.8397537562000001 6.7912633783 6.713598068999999
         W -1.1082463302999999 22.109503385 6.713598035699999
         W 1.8388353653999991 34.0202063451 6.713519294099999
         W -4.057164682000001 13.5958863642 6.7135191923
         W -7.005164593799999 18.7019663859 6.7135191922
         W 7.73483539 13.595886391 6.7135191662
         W 10.682835384199999 18.7019663486 6.7135191597
         W 4.786835320400002 28.9141263559 6.7135191278
         W 1.8388353592 13.5958864185 6.7135191002
         W 4.7868353187 18.7019663846 6.713519088
         W 7.7348353455000005 23.8080463926 6.713519080899999
         W -1.1091646234000005 8.4898063893 6.7135190795
         W -1.1091646480999997 28.9141263266 6.713519066099999
         W 4.7868353396 8.4898063911 6.7135190048
         W -1.1091647371999995 18.7019663951 6.7135190046
         W 1.8388353872000003 3.3837263602000003 6.7135189962999995
         W -4.057164654699999 23.8080464062 6.7135189884
         W 1.8388353278999996 23.8080463399 6.713518925299999
         W -4.0537431967 10.1927289915 6.7134478231
         W -7.001743185799999 15.2988090141 6.7134478152999995
         W -1.1057431439999996 35.7231290143 6.713447782699999
         W 1.8422567891000003 30.6170490152 6.7134477282
         W -9.9497431304 20.4048890017 6.713447702899999
         W -4.0537431772 30.6170490193 6.7134476870999995
         W -1.1057432038999997 15.2988090804 6.7134476619
         W 4.790256842900001 15.298809053700001 6.7134476181
         W 7.738256810700001 20.404889071 6.7134476142
         W -1.1057431374000002 5.086649052 6.7134476035
         W 1.8422567766000002 10.1927291114 6.713447602099999
         W 4.790256769499999 25.510969041699997 6.7134476009999995
         W -4.0537432059 20.4048891038 6.71344758
         W -7.001743162100001 25.5109690282 6.713447552
         W 1.8422567008999995 20.404888993399997 6.7134475325
         W -1.1057431996000002 25.5109690285 6.7134474708
         Se 3.8055765330000004 17.0401538147 20.0907252375
         Se 0.8575766512000002 22.1462338778 20.0907250802
         Se 6.7535766213 11.9340737002 20.090725048499998
         Se -5.0384235796 22.1462337582 20.0907249655
         Se -2.0904235487999996 17.040153651 20.0907249165
         Se -2.0904233487 27.252313786 20.0907248751
         Se 9.7015766947 17.0401537201 20.0907247764
         Se 3.8055764465 6.8279936907 20.0907246918
         Se 0.8575763499999999 11.9340736129 20.0907246825
         Se 6.753576630000001 22.1462338644 20.09072467
         Se -7.9864234537000005 17.0401535848 20.090724567
         Se 0.8575765760000001 1.7219137051000002 20.090724502899995
         Se 0.8575766858000001 32.3583935847 20.0907244958
         Se 3.8055766844999988 27.2523137729 20.0907242688
         Se -2.0904235099000004 6.827993717 20.090724231
         Se -5.038423495099999 11.934073602899998 20.090724202099995
         Se -2.0876557906000004 20.4443581849 20.0906833501
         Se 6.756344424700001 15.338278146200002 20.0906833118
         Se 3.8083443789000007 20.4443582874 20.090683270999996
         Se 0.8603441723 15.338278063299999 20.090683218499997
         Se -5.0356557433 25.5504381535 20.0906831266
         Se 3.8083442040999995 10.2321980731 20.0906831018
         Se -2.0876555894 30.6565181204 20.090683013799996
         Se 0.8603444980999999 25.5504382595 20.0906829388
         Se -7.983655744999999 20.4443580689 20.0906828766
         Se 9.7043443868 20.444358218399998 20.0906828461
         Se 0.8603444484999999 35.7625980328 20.090682715
         Se -5.035655730100001 15.3382779308 20.0906827034
         Se 0.8603442581000001 5.1261180694 20.0906826482
         Se -2.0876558597000003 10.2321980469 20.0906824479
         Se 6.756344380099999 25.5504382074 20.0906824348
         Se 3.8083444143999996 30.6565180111 20.090682391999998
         Se 0.8586875284000002 18.7445797196 20.0906468827
         Se 3.806687473 13.6384996231 20.0906468405
         Se -2.0893123773000006 23.8506597847 20.0906467948
         Se 6.754687710200001 18.7445797548 20.0906467157
         Se -5.037312441700001 28.9567395889 20.090646609
         Se -5.0373125192 18.7445795419 20.0906465914
         Se -2.0893121811000013 34.0628196201 20.0906465505
         Se 3.8066877364999985 23.8506598633 20.090646382
         Se -7.985312462299999 23.8506596789 20.0906463661
         Se 0.8586876074999998 39.1688996087 20.090646304499998
         Se 0.8586874533000002 8.5324195676 20.0906462439
         Se 0.8586877064999997 28.9567396494 20.0906462077
         Se -2.0893125373 13.6384994968 20.0906462074
         Se 9.7026876139 23.8506597213 20.0906461025
         Se 3.806687631 34.0628194839 20.0906460933
         Se 6.754687596399999 28.956739605000003 20.0906457759
         Se -2.086844965 20.4430652541 16.7904253585
         Se 6.757154899400001 15.336985131 16.7904253256
         Se 3.8091548947999994 20.4430650104 16.7904252524
         Se 0.8611551286000008 15.3369853121 16.7904252168
         Se -5.0348448445 25.5491451087 16.7904251104
         Se 3.8091551341 10.2309052947 16.7904251095
         Se -2.086845168799999 30.655225116 16.7904249986
         Se 0.8611549209000001 25.5491449703 16.7904249395
         Se -7.9828448630999995 20.4430651334 16.790424938699996
         Se 9.705154882199999 20.4430650879 16.7904248891
         Se 0.8611549658999997 35.7613051192 16.79042482
         Se -5.0348449167 15.3369853159 16.7904247667
         Se 0.8611551744999998 5.1248250907 16.7904247026
         Se -2.086844872 10.2309051866 16.7904244964
         Se 6.757155012000002 25.5491449479 16.790424487199996
         Se 3.8091549012000003 30.655225092 16.7904244328
         Se 3.8039629039999996 17.0397393103 16.7903346209
         Se 6.751962868000001 11.9336593903 16.7903344681
         Se 0.8559628056000002 22.1458191935 16.790334467699996
         Se -2.0920370111 17.0397395196 16.790334336999997
         Se -5.040036974799999 22.1458193834 16.790334330299995
         Se -2.0920371226000007 27.251899196100002 16.7903342529
         Se 9.6999627337 17.0397392951 16.790334153699998
         Se 3.8039630428 6.8275793897999995 16.7903341044
         Se 0.8559630901999997 11.9336594187 16.7903340986
         Se 6.7519627594 22.1458191403 16.7903340321
         Se -7.988037055899999 17.0397393899 16.7903339365
         Se 0.8559629617 1.7214992166 16.7903339339
         Se 0.8559627304999999 32.3579792706 16.7903338782
         Se 3.8039627780000007 27.251899183 16.7903336524
         Se -2.0920369668000003 6.8275793194 16.7903336338
         Se -5.0400371376 11.9336594194 16.7903335901
         Se 0.8598199961 18.7461781175 16.7901262052
         Se 3.8078200715000006 13.6400982036 16.790126160699998
         Se -2.0881799524000004 23.8522580078 16.790126083
         Se 6.7558198714 18.7461779898 16.790126018399995
         Se -5.0361799518 28.9583380717 16.7901259602
         Se -5.0361798748 18.7461782011 16.7901259198
         Se -2.0881801183 34.0644180855 16.790125858
         Se -7.984179807100001 23.8522581046 16.7901257051
         Se 3.807819903599999 23.8522578839 16.790125684
         Se 0.8598199425000006 39.1704980383 16.7901256286
         Se 0.8598201935999998 8.5340181564 16.7901255705
         Se -2.0881798299999996 13.6400982686 16.790125566
         Se 0.8598198078000008 28.95833799 16.790125532199998
         Se 9.7038200577 23.8522579959 16.7901254664
         Se 3.8078199387000002 34.064418152500004 16.7901254192
         Se 6.7558200396000005 28.958338046700003 16.79012514
         Se -7.984144378 16.9978896479 8.3602992382
         Se -5.036144434100001 11.891809594000001 8.3602992369
         Se 0.8598555033000002 32.3161295493 8.3602992244
         Se 9.7038555239 16.9978896194 8.3602991224
         Se 6.7558555414 11.891809588700001 8.360299111199998
         Se 0.8598555541999999 11.8918096709 8.3602990923
         Se -2.0881444901000004 16.9978896456 8.3602990674
         Se -2.0881444013 6.785729627 8.360299066399998
         Se 3.8078555302 16.9978896317 8.360299060999997
         Se 6.755855485799999 22.1039696395 8.3602990448
         Se -5.0361444216 22.1039696818 8.360299034999999
         Se 0.8598555947000001 1.679649645 8.3602990276
         Se 3.8078554583000006 27.210049594 8.3602990237
         Se -2.0881444667 27.2100495545 8.3602989972
         Se 3.8078555606999998 6.7857296046 8.3602989681
         Se 0.8598554759000002 22.1039696162 8.360298929199999
         Se 3.8033760584 34.022948833 8.360112866
         Se -2.0926239606000006 34.0229488236 8.360112804199998
         Se 6.751375942599998 28.916868797 8.3601127884
         Se 0.8553760491000001 39.129028850000005 8.3601127735
         Se -2.092623985 13.598628922 8.3601127049
         Se -5.0406238976 18.7047089772 8.3601126836
         Se 0.8553760006000005 28.9168687141 8.360112651
         Se 6.751376002900001 18.7047089175 8.3601126478
         Se 9.699376074899998 23.8107888808 8.3601126435
         Se 3.8033760683999995 13.598628908 8.3601126395
         Se -5.0406240448 28.9168688458 8.3601126279
         Se 0.8553758720999997 18.7047088358 8.3601125957
         Se -7.9886239505 23.8107888802 8.3601125922
         Se 3.8033759637999998 23.8107888181 8.3601125913
         Se 0.8553760901999999 8.4925488714 8.3601125728
         Se -2.0926239665 23.8107888935 8.3601125037
         Se 0.8612168114000007 35.726041942 8.360034903
         Se 3.8092167334 30.619961882400002 8.3600348296
         Se -5.034783200399999 15.3017219598 8.3600348232
         Se -2.0867831622 10.1956419487 8.3600348021
         Se -7.9827831584 20.4078020076 8.3600348009
         Se -2.0867832088 30.6199618571 8.3600347782
         Se 0.8612167922999997 15.3017219964 8.3600347441
         Se 6.757216752899999 25.5138819362 8.360034737299998
         Se 9.7052167664 20.4078019761 8.3600347337
         Se 6.757216786600001 15.301722002500002 8.3600347195
         Se 3.8092166564999985 20.407801937 8.3600346977
         Se 3.8092167598 10.1956419514 8.3600346799
         Se -5.034783217200001 25.5138819794 8.3600346568
         Se -2.086783239700001 20.4078020463 8.360034631
         Se 0.8612168684000002 5.0895619794 8.3600346302
         Se 0.8612167530000003 25.5138818937 8.360034558499999
         Se -5.037391560899999 11.893586157699998 5.060887996
         Se -7.985391513799999 16.9996661984 5.060887984699999
         Se 0.8586084550000019 32.3179062556 5.060887943199999
         Se 6.754608505400001 11.893586232400002 5.0608878975
         Se 9.7026085313 16.9996661704 5.0608878895
         Se 0.8586083846999998 11.893586323 5.0608878234
         Se 3.8066084321999996 16.9996662504 5.060887810699999
         Se -2.0893915735000004 6.7875062581000005 5.0608878097
         Se 0.858608503 1.6814261398000003 5.0608877909
         Se 6.754608445100001 22.105746259600004 5.060887783399999
         Se -2.0893916273000004 16.9996661826 5.0608877789
         Se -5.037391575900001 22.1057462582 5.0608877532
         Se 3.806608478599999 27.2118262696 5.0608877449
         Se 3.8066085006999995 6.7875062188 5.060887710299999
         Se -2.0893915854000005 27.2118262577 5.0608877097
         Se 0.8586084085999997 22.1057461721 5.0608876577
         Se 0.8602979699999996 35.7245614294 5.0608410183
         Se 3.8082978675000003 30.6184815219 5.060840952999999
         Se -2.0877021887 10.1941615105 5.060840937799999
         Se -5.035702186900001 15.3002414097 5.060840910399999
         Se -7.983702089200001 20.4063213977 5.060840897399999
         Se 6.756297899499998 25.5124015151 5.0608408678
         Se -2.087702105000001 30.6184814861 5.0608408657
         Se 9.704297918799998 20.4063214249 5.0608408425
         Se 0.8602978648999993 15.3002414866 5.060840833
         Se 6.7562979259 15.3002414577 5.0608408327
         Se 3.8082978304000012 20.4063214411 5.0608408078
         Se 3.8082978643999996 10.1941615252 5.060840803599999
         Se -5.0357021061000005 25.5124015162 5.0608407367
         Se -2.0877022031 20.4063214773 5.0608407171
         Se 0.8602979066 5.0880814564 5.0608407163
         Se 0.8602978765999998 25.5124014496 5.0608406576
         Se 3.8052122360000005 34.0225332341 5.0608069185
         Se -2.0907877061 34.0225332412 5.0608068542
         Se 0.8572122838999992 39.1286131767 5.0608068444
         Se 6.753212225599999 28.9164532913 5.0608068146
         Se -2.0907878189 13.5982132892 5.0608067813
         Se -5.0387877891 18.7042932421 5.060806735
         Se 6.753212214100002 18.7042932891 5.060806732899999
         Se 9.7012122653 23.810373265200003 5.0608067296999995
         Se 3.8052122527 13.598213264100002 5.0608067109
         Se 0.8572122123000004 28.9164533157 5.060806695899999
         Se -5.038787745 28.9164533089 5.0608066918
         Se 0.8572122219 8.4921333302 5.0608066486
         Se -7.986787709100001 23.8103732061 5.0608066446999995