Ba1 Ti1 O3                              
   1.00000000000000     
     3.7699676734894645    0.0000000000000008   -0.0000000000000017
     0.0000000000000014    3.7699676734894645   -0.0000000000000037
     0.0000000000000003    0.0000000000000003    5.0547580007260491
   Ba   Ti   O 
     1     1     3
Direct
  0.0000000000000000  0.0000000000000000  0.0853848974704974
  0.5000000000000000  0.5000000000000000  0.5760133457884535
  0.0000000000000000  0.5000000000000000  0.4675011057532643
  0.5000000000000000  0.0000000000000000  0.4675011057532643
  0.5000000000000000  0.5000000000000000  0.9235995452345236
 
  0.00000000E+00  0.00000000E+00  0.00000000E+00
  0.00000000E+00  0.00000000E+00  0.00000000E+00
  0.00000000E+00  0.00000000E+00  0.00000000E+00
  0.00000000E+00  0.00000000E+00  0.00000000E+00
  0.00000000E+00  0.00000000E+00  0.00000000E+00
