ALGO = Normal
EDIFF = 1e-05
EDIFFG = -0.01
ENCUT = 650
GGA = Ps
ICHARG = 11
ISIF = 3
ISMEAR = -5
ISYM = 0
KPAR = 4
LAECHG = True
LCHARG = False
LDAU = False
LELF = False
LORBIT = 11
LREAL = Auto
LVTOT = True
LWAVE = True
NBANDS = 27
NCORE = 8
NEDOS = 3208
NELM = 100
NSW = 0
